100
200
160
157
153
153
153
153
152
152
150
150
150
148
145
144
140
139
138
138
136
135
135
134
131
131
130
130
126
123
120
119
118
118
116
112
112
111
111
107
107
105
103
102
102
101
98
98
95
93
88
88
87
87
86
81
80
80
79
77
76
75
73
72
71
70
70
68
68
68
65
62
60
59
59
59
57
55
53
52
51
50
48
48
45
44
43
43
39
39
38
35
35
35
34
29
29
28
26
23
22
21
